
;this file is automatically generated: Tue Oct 27 10:35:00 CST 2020

;declarations generated

(declare-fun class23_Class23BoolAttr0 ( Int) Bool)
(declare-fun class23_Class23BoolAttr1 ( Int) Bool)
(declare-fun oclExcludes ( Int Int) Bool)
(declare-fun type_c076c7f7_810c_4124_b307_120ad77daa97_Class8 ( Int) Bool)
(declare-fun Cardinality ( Int) Int)
(declare-fun type_c076c7f7_810c_4124_b307_120ad77daa97_Class23 ( Int) Bool)
(declare-fun type_c076c7f7_810c_4124_b307_120ad77daa97_Class24 ( Int) Bool)
(declare-fun oclSelect ( Int Bool) Int)
(declare-fun class23_Class23IntAttr2 ( Int) Int)
(declare-fun type_c076c7f7_810c_4124_b307_120ad77daa97_Class28 ( Int) Bool)
(declare-fun obj_0a3240bc_648a_4213_8b65_df11bcdfa4cc ( Int) Int)
(declare-fun Enum0 ( Int) Int)
(declare-fun Enum1 ( Int) Int)
(declare-fun Enum2 ( Int) Int)
(declare-fun container_ ( Int) Int)
(declare-fun oclIncludes ( Int Int) Bool)
(declare-fun ObjAt ( Int Int) Int)

;formula(s) generated
(assert (forall ((p Int)) (=> ( type_c076c7f7_810c_4124_b307_120ad77daa97_Class23 p )  (and (>= ( Enum2 ( obj_0a3240bc_648a_4213_8b65_df11bcdfa4cc p )  )  0) (<= ( Enum2 ( obj_0a3240bc_648a_4213_8b65_df11bcdfa4cc p )  )  6)))))
(assert (forall ((p Int)) (=> ( type_c076c7f7_810c_4124_b307_120ad77daa97_Class23 p )  (and (>= ( Enum1 ( obj_0a3240bc_648a_4213_8b65_df11bcdfa4cc p )  )  0) (<= ( Enum1 ( obj_0a3240bc_648a_4213_8b65_df11bcdfa4cc p )  )  13)))))
(assert (! (forall ((v Int)) (=> (and (and (and ( type_c076c7f7_810c_4124_b307_120ad77daa97_Class23 v )  ( type_c076c7f7_810c_4124_b307_120ad77daa97_Class24 v ) ) ( type_c076c7f7_810c_4124_b307_120ad77daa97_Class8 v ) ) ( type_c076c7f7_810c_4124_b307_120ad77daa97_Class28 v ) ) (not (= ( Enum2 ( obj_0a3240bc_648a_4213_8b65_df11bcdfa4cc v )  )  5) ))):named l0))
(assert (! (forall ((v Int)) (=> (and (and (and ( type_c076c7f7_810c_4124_b307_120ad77daa97_Class23 v )  ( type_c076c7f7_810c_4124_b307_120ad77daa97_Class24 v ) ) ( type_c076c7f7_810c_4124_b307_120ad77daa97_Class8 v ) ) ( type_c076c7f7_810c_4124_b307_120ad77daa97_Class28 v ) ) (or (not (= ( Enum1 ( obj_0a3240bc_648a_4213_8b65_df11bcdfa4cc v )  )  4) ) (and (forall ((v Int)) (=> (and (and (and ( type_c076c7f7_810c_4124_b307_120ad77daa97_Class23 v )  ( type_c076c7f7_810c_4124_b307_120ad77daa97_Class24 v ) ) ( type_c076c7f7_810c_4124_b307_120ad77daa97_Class8 v ) ) ( type_c076c7f7_810c_4124_b307_120ad77daa97_Class28 v ) ) ( class23_Class23BoolAttr0 ( obj_0a3240bc_648a_4213_8b65_df11bcdfa4cc v )  ) )) (forall ((v Int)) (=> (and (and (and ( type_c076c7f7_810c_4124_b307_120ad77daa97_Class23 v )  ( type_c076c7f7_810c_4124_b307_120ad77daa97_Class24 v ) ) ( type_c076c7f7_810c_4124_b307_120ad77daa97_Class8 v ) ) ( type_c076c7f7_810c_4124_b307_120ad77daa97_Class28 v ) ) ( class23_Class23BoolAttr1 ( obj_0a3240bc_648a_4213_8b65_df11bcdfa4cc v )  ) )))))):named l1))
(assert (! (forall ((v Int)) (=> (and (and (and ( type_c076c7f7_810c_4124_b307_120ad77daa97_Class23 v )  ( type_c076c7f7_810c_4124_b307_120ad77daa97_Class24 v ) ) ( type_c076c7f7_810c_4124_b307_120ad77daa97_Class8 v ) ) ( type_c076c7f7_810c_4124_b307_120ad77daa97_Class28 v ) ) (or (= ( Enum1 ( obj_0a3240bc_648a_4213_8b65_df11bcdfa4cc v )  )  3) (or (forall ((v Int)) (=> (and (and (and ( type_c076c7f7_810c_4124_b307_120ad77daa97_Class23 v )  ( type_c076c7f7_810c_4124_b307_120ad77daa97_Class24 v ) ) ( type_c076c7f7_810c_4124_b307_120ad77daa97_Class8 v ) ) ( type_c076c7f7_810c_4124_b307_120ad77daa97_Class28 v ) ) (= ( Enum2 ( obj_0a3240bc_648a_4213_8b65_df11bcdfa4cc v )  )  6))) (forall ((v Int)) (=> (and (and (and ( type_c076c7f7_810c_4124_b307_120ad77daa97_Class23 v )  ( type_c076c7f7_810c_4124_b307_120ad77daa97_Class24 v ) ) ( type_c076c7f7_810c_4124_b307_120ad77daa97_Class8 v ) ) ( type_c076c7f7_810c_4124_b307_120ad77daa97_Class28 v ) ) (< ( class23_Class23IntAttr2 ( obj_0a3240bc_648a_4213_8b65_df11bcdfa4cc v )  )  3))))))):named l2))
(assert (exists ((o Int)) (and (and (and ( type_c076c7f7_810c_4124_b307_120ad77daa97_Class23 ( obj_0a3240bc_648a_4213_8b65_df11bcdfa4cc o )  )  ( type_c076c7f7_810c_4124_b307_120ad77daa97_Class24 ( obj_0a3240bc_648a_4213_8b65_df11bcdfa4cc o )  ) ) ( type_c076c7f7_810c_4124_b307_120ad77daa97_Class8 ( obj_0a3240bc_648a_4213_8b65_df11bcdfa4cc o )  ) ) ( type_c076c7f7_810c_4124_b307_120ad77daa97_Class28 ( obj_0a3240bc_648a_4213_8b65_df11bcdfa4cc o )  ) )))

 ;end of formula 